
Log started (V11.0.0) Wed Apr 16 12:41:57 2008

Tried aggregator 1 time.
Reduced MIP has 110 rows, 1001 columns, and 2010 nonzeros.
Presolve time =    0.02 sec.
Clique table members: 100.
MIP emphasis: balance optimality and feasibility.
MIP search method: dynamic search.
Parallel mode: none, using 1 thread.
Root relaxation solution time =    0.02 sec.

        Nodes                                         Cuts/
   Node  Left     Objective  IInf  Best Integer     Best Node    ItCnt     Gap

*     0+    0                        15251.0000     1075.3007      181   92.95%
*     0+    0                         1116.0000     1075.3007      181    3.65%
      0     0     1076.0000    20     1116.0000      Fract: 8      192    3.58%
*     0+    0                         1106.0000     1076.0000      192    2.71%
      0     0     1076.0000    18     1106.0000     Covers: 1      210    2.71%
      0     0     1076.0000    21     1106.0000     Covers: 2      221    2.71%
      0     0     1076.0000    22     1106.0000     Covers: 1      235    2.71%
*     0+    0                         1094.0000     1076.0000      235    1.65%
      0     2     1076.0000    22     1094.0000     1076.0000      235    1.65%
    100    73     1081.0000    19     1094.0000     1076.0000     3592    1.65%
    200   129     1084.0000    18     1094.0000     1076.0000     7684    1.65%
    300   185     1077.0000    16     1094.0000     1076.0000     9942    1.65%
    400   275     1080.0000    19     1094.0000     1076.0000    10829    1.65%
    500   335     1081.0000    26     1094.0000     1080.0000    13593    1.28%
    600   345     1080.0000    23     1094.0000     1080.0000    16600    1.28%
    700   359     1085.0000    13     1094.0000     1080.0000    18827    1.28%
    800   377     1086.0000    33     1094.0000     1080.0000    24035    1.28%
    900   394     1082.0000    40     1094.0000     1080.0000    29103    1.28%
   1000   421     1086.0000    19     1094.0000     1080.0000    33557    1.28%
Elapsed time =   5.00 sec. (tree size =  0.20 MB, solutions = 4)
   1100   491     1088.0000    33     1094.0000     1080.0000    39888    1.28%
   1200   564     1085.0000    21     1094.0000     1080.0000    43484    1.28%
   1300   653     1091.0000    13     1094.0000     1080.0000    46051    1.28%
   1400   724     1081.0000    40     1094.0000     1080.0000    50270    1.28%
   1500   806     1086.0000    33     1094.0000     1080.0000    57309    1.28%
   1600   888     1085.3615    32     1094.0000     1080.0000    62436    1.28%
   1700   968     1089.0000    25     1094.0000     1080.0000    67861    1.28%
   1800  1051     1083.0000    18     1094.0000     1080.0000    73237    1.28%
   1900  1134     1083.0000    26     1094.0000     1080.0000    77196    1.28%
*  1923+  760                         1087.0000     1080.0000    77700    0.64%
   2000   816     1086.0000    34     1087.0000     1080.0000    82853    0.64%
Elapsed time =   9.70 sec. (tree size =  0.42 MB, solutions = 5)
*  2093+  696                         1086.0000     1080.0000    89497    0.55%
   2100   703     1085.0000    38     1086.0000     1080.0000    90326    0.55%
   2200   778     1081.0000    46     1086.0000     1080.0000    98985    0.55%
*  2233+  387                         1084.0000     1080.0000   102354    0.37%
*  2243+  187                         1083.0000     1080.0000   102653    0.28%
   2300   217     1082.0000    32     1083.0000     1080.0000   110760    0.28%
   2400   242        cutoff           1083.0000     1081.0000   123174    0.18%
   2500   258    infeasible           1083.0000     1081.0000   134187    0.18%
   2600   310    infeasible           1083.0000     1081.0000   143996    0.18%
   2700   369     1081.5347    45     1083.0000     1081.0000   154546    0.18%
   2800   418     1082.0000    30     1083.0000     1081.0000   162268    0.18%
   2900   458     1082.0000    32     1083.0000     1081.0000   176727    0.18%
   3000   525     1082.0000    31     1083.0000     1081.0000   187678    0.18%
Elapsed time =  17.52 sec. (tree size =  0.29 MB, solutions = 8)
   3100   586     1082.0000    37     1083.0000     1081.0000   196976    0.18%
   3200   651     1082.0000    32     1083.0000     1081.0000   206460    0.18%
   3300   721     1082.0000    24     1083.0000     1081.0000   214375    0.18%
   3400   777     1082.0000    33     1083.0000     1081.0000   227237    0.18%
   3500   829     1082.0000    22     1083.0000     1081.0000   235170    0.18%
   3600   900     1082.0000    25     1083.0000     1081.0000   245191    0.18%
   3700   953     1082.0000    31     1083.0000     1081.0000   258660    0.18%
   3800  1006     1082.0000    20     1083.0000     1081.0000   270273    0.18%
   3900  1056    infeasible           1083.0000     1081.0000   279161    0.18%
   4000  1112    infeasible           1083.0000     1081.0000   291936    0.18%
Elapsed time =  26.39 sec. (tree size =  0.59 MB, solutions = 8)
   4100  1176     1082.0000    40     1083.0000     1081.0000   301360    0.18%
   4200  1208     1082.0000    30     1083.0000     1081.0000   317972    0.18%
   4300  1276     1082.0000    24     1083.0000     1081.0000   327187    0.18%
   4400  1325     1082.0000    30     1083.0000     1081.0000   341655    0.18%
   4500  1387     1082.0000    37     1083.0000     1081.0000   352629    0.18%
   4600  1434     1082.0000    21     1083.0000     1081.0000   364959    0.18%
   4700  1464     1082.0000    39     1083.0000     1082.0000   379600    0.09%
   4800  1479    infeasible           1083.0000     1082.0000   392734    0.09%
   4900  1501     1082.0000    26     1083.0000     1082.0000   405932    0.09%
   5000  1519     1082.0000    30     1083.0000     1082.0000   419600    0.09%
Elapsed time =  37.86 sec. (tree size =  0.80 MB, solutions = 8)
   5100  1541     1082.0000    24     1083.0000     1082.0000   432712    0.09%
   5200  1580    infeasible           1083.0000     1082.0000   439739    0.09%
   5300  1574     1082.0000    26     1083.0000     1082.0000   453778    0.09%
   5400  1611    infeasible           1083.0000     1082.0000   457386    0.09%
   5500  1597    infeasible           1083.0000     1082.0000   465562    0.09%
   5600  1636    infeasible           1083.0000     1082.0000   478377    0.09%
   5700  1675    infeasible           1083.0000     1082.0000   487993    0.09%
   5800  1667    infeasible           1083.0000     1082.0000   498144    0.09%
   5900  1667     1082.0000    36     1083.0000     1082.0000   511016    0.09%
   6000  1691     1082.0000    49     1083.0000     1082.0000   526241    0.09%
Elapsed time =  47.55 sec. (tree size =  0.89 MB, solutions = 8)
   6100  1693    infeasible           1083.0000     1082.0000   540551    0.09%
   6200  1690    infeasible           1083.0000     1082.0000   548264    0.09%
   6300  1708    infeasible           1083.0000     1082.0000   562459    0.09%
   6400  1704        cutoff           1083.0000     1082.0000   577495    0.09%
   6500  1734    infeasible           1083.0000     1082.0000   587744    0.09%
   6600  1756    infeasible           1083.0000     1082.0000   600666    0.09%
   6700  1774     1082.0000    26     1083.0000     1082.0000   606377    0.09%
   6800  1779     1082.0000    22     1083.0000     1082.0000   619820    0.09%
   6900  1773    infeasible           1083.0000     1082.0000   630011    0.09%
   7000  1769    infeasible           1083.0000     1082.0000   640622    0.09%
Elapsed time =  58.20 sec. (tree size =  0.94 MB, solutions = 8)
   7100  1803     1082.0000    38     1083.0000     1082.0000   656735    0.09%
   7200  1765    infeasible           1083.0000     1082.0000   677776    0.09%
   7300  1741     1082.0000    36     1083.0000     1082.0000   696985    0.09%
   7400  1718    infeasible           1083.0000     1082.0000   717436    0.09%
   7500  1678    infeasible           1083.0000     1082.0000   739653    0.09%
   7600  1634    infeasible           1083.0000     1082.0000   762124    0.09%
   7700  1584    infeasible           1083.0000     1082.0000   782872    0.09%
   7800  1538    infeasible           1083.0000     1082.0000   805009    0.09%
   7900  1497     1082.0000    43     1083.0000     1082.0000   824319    0.09%
   8000  1455    infeasible           1083.0000     1082.0000   847014    0.09%
Elapsed time =  79.36 sec. (tree size =  0.78 MB, solutions = 8)
   8100  1402    infeasible           1083.0000     1082.0000   868686    0.09%
   8200  1402    infeasible           1083.0000     1082.0000   887772    0.09%
   8300  1338    infeasible           1083.0000     1082.0000   908689    0.09%
   8400  1324    infeasible           1083.0000     1082.0000   927885    0.09%
   8500  1301     1082.0000    44     1083.0000     1082.0000   949260    0.09%
   8600  1283    infeasible           1083.0000     1082.0000   967945    0.09%
   8700  1235    infeasible           1083.0000     1082.0000   988925    0.09%
   8800  1185    infeasible           1083.0000     1082.0000  1012081    0.09%
   8900  1155    infeasible           1083.0000     1082.0000  1033856    0.09%
   9000  1099    infeasible           1083.0000     1082.0000  1057281    0.09%
Elapsed time = 102.28 sec. (tree size =  0.60 MB, solutions = 8)
   9100  1059     1082.0000    28     1083.0000     1082.0000  1079948    0.09%
   9200  1049    infeasible           1083.0000     1082.0000  1102223    0.09%
   9300   988    infeasible           1083.0000     1082.0000  1126715    0.09%
   9400   927    infeasible           1083.0000     1082.0000  1150716    0.09%
   9500   900     1082.0000    39     1083.0000     1082.0000  1171423    0.09%
   9600   875    infeasible           1083.0000     1082.0000  1194655    0.09%
   9700   830     1082.0000    39     1083.0000     1082.0000  1217529    0.09%
   9800   785    infeasible           1083.0000     1082.0000  1243392    0.09%
   9900   755    infeasible           1083.0000     1082.0000  1268509    0.09%
  10000   729     1082.0000    50     1083.0000     1082.0000  1288177    0.09%
Elapsed time = 129.09 sec. (tree size =  0.41 MB, solutions = 8)
  10100   724    infeasible           1083.0000     1082.0000  1306171    0.09%
  10200   701     1082.0000    36     1083.0000     1082.0000  1329564    0.09%
  10300   630    infeasible           1083.0000     1082.0000  1352420    0.09%
  10400   572    infeasible           1083.0000     1082.0000  1375957    0.09%
  10500   494        cutoff           1083.0000     1082.0000  1401547    0.09%
  10600   468    infeasible           1083.0000     1082.0000  1422173    0.09%
  10700   433    infeasible           1083.0000     1082.0000  1446267    0.09%
  10800   405     1082.0000    42     1083.0000     1082.0000  1468147    0.09%
  10900   401     1082.0000    18     1083.0000     1082.0000  1487375    0.09%
  11000   348    infeasible           1083.0000     1082.0000  1511314    0.09%
Elapsed time = 156.00 sec. (tree size =  0.21 MB, solutions = 8)
  11100   331    infeasible           1083.0000     1082.0000  1536799    0.09%
  11200   321     1082.0000    27     1083.0000     1082.0000  1555510    0.09%
  11300   321     1082.0000    49     1083.0000     1082.0000  1572218    0.09%
  11400   281     1082.0000    42     1083.0000     1082.0000  1593013    0.09%
  11500   268     1082.0000    42     1083.0000     1082.0000  1615511    0.09%
  11600   266    infeasible           1083.0000     1082.0000  1643267    0.09%
  11700   220    infeasible           1083.0000     1082.0000  1667791    0.09%
  11800   190     1082.0000    50     1083.0000     1082.0000  1690119    0.09%
  11900   159    infeasible           1083.0000     1082.0000  1715878    0.09%
  12000   140    infeasible           1083.0000     1082.0000  1738219    0.09%
Elapsed time = 185.47 sec. (tree size =  0.11 MB, solutions = 8)
  12100   152     1082.0000    49     1083.0000     1082.0000  1761898    0.09%
  12200   112    infeasible           1083.0000     1082.0000  1791558    0.09%
  12300   114     1082.0000    31     1083.0000     1082.0000  1814951    0.09%
  12400    52    infeasible           1083.0000     1082.0000  1842701    0.09%
  12500    17    infeasible           1083.0000     1082.0000  1870381    0.09%

Cover cuts applied:  420
Mixed integer rounding cuts applied:  23
Gomory fractional cuts applied:  4

Solution pool: 8 solutions saved.

MIP - Integer optimal solution:  Objective = 1.0830000000e+003
Solution time =  204.69 sec.  Iterations = 1876690  Nodes = 12526


Incumbent solution
Variable Name           Solution Value
Cmax                       1083.000000
X_1_2                         1.000000
X_2_9                         1.000000
X_3_3                         1.000000
X_4_1                         1.000000
X_5_5                         1.000000
X_6_9                         1.000000
X_7_1                         1.000000
X_8_8                         1.000000
X_9_8                         1.000000
X_10_2                        1.000000
X_11_4                        1.000000
X_12_10                       1.000000
X_13_5                        1.000000
X_14_3                        1.000000
X_15_7                        1.000000
X_16_10                       1.000000
X_17_1                        1.000000
X_18_7                        1.000000
X_19_10                       1.000000
X_20_2                        1.000000
X_21_8                        1.000000
X_22_4                        1.000000
X_23_4                        1.000000
X_24_8                        1.000000
X_25_9                        1.000000
X_26_8                        1.000000
X_27_4                        1.000000
X_28_9                        1.000000
X_29_2                        1.000000
X_30_7                        1.000000
X_31_6                        1.000000
X_32_3                        1.000000
X_33_1                        1.000000
X_34_6                        1.000000
X_35_3                        1.000000
X_36_1                       -0.000000
X_36_2                        1.000000
X_37_7                        1.000000
X_38_7                        1.000000
X_39_6                        1.000000
X_40_6                        1.000000
X_41_2                        1.000000
X_42_3                        1.000000
X_43_5                        1.000000
X_44_9                        1.000000
X_45_3                        1.000000
X_46_5                        1.000000
X_47_6                        1.000000
X_48_4                        1.000000
X_49_3                        1.000000
X_50_4                        1.000000
X_51_8                        1.000000
X_52_2                        1.000000
X_53_10                       1.000000
X_54_1                        1.000000
X_55_1                        1.000000
X_56_1                        1.000000
X_57_9                        1.000000
X_58_7                        1.000000
X_59_9                        1.000000
X_60_10                       1.000000
X_61_5                        1.000000
X_62_2                        1.000000
X_63_7                        1.000000
X_64_3                        1.000000
X_65_4                        1.000000
X_66_5                        1.000000
X_67_5                        1.000000
X_68_3                        1.000000
X_69_1                        1.000000
X_70_5                        1.000000
X_71_4                        1.000000
X_72_6                        1.000000
X_73_4                        1.000000
X_74_10                       1.000000
X_75_2                       -0.000000
X_75_6                        1.000000
X_76_4                        1.000000
X_77_2                        1.000000
X_78_7                        1.000000
X_79_8                        1.000000
X_80_8                        1.000000
X_81_6                        1.000000
X_82_9                        1.000000
X_83_1                        1.000000
X_84_7                        1.000000
X_85_3                        1.000000
X_86_8                        1.000000
X_87_7                        1.000000
X_88_8                        1.000000
X_89_5                        1.000000
X_90_9                        1.000000
X_91_6                        1.000000
X_92_10                       1.000000
X_93_3                        0.000000
X_93_6                        1.000000
X_94_1                        1.000000
X_95_10                       1.000000
X_96_10                       1.000000
X_97_9                        1.000000
X_98_10                       1.000000
X_99_5                        1.000000
X_100_2                       1.000000
All other variables in the range 1-1001 are 0.
